sat
(
(define-fun sym2170 () String "K")
(define-fun sym209 () String "Y")
(define-fun sym1946 () String "P")
(define-fun sym817 () String "K")
(define-fun sym1528 () String "K")
(define-fun sym3228 () String "P")
(define-fun sym3327 () String "A")
(define-fun sym551 () String "P")
(define-fun sym2811 () String "K")
(define-fun sym1304 () String "P")
(define-fun sym3006 () String "G")
(define-fun sym1731 () String "G")
(define-fun sym2587 () String "P")
(define-fun sym2365 () String "G")
(define-fun sym1073 () String "G")
(define-fun sym161 () String "")
)
